50
13629

865 966
395 495
777 879
912 1011
431 533
42 143
266 367
989 1091
524 624
498 596
415 517
941 1039
803 901
850 951
311 409
992 1094
489 590
367 467
598 697
914 1014
930 1028
224 323
517 619
143 242
289 388
144 243
774 876
98 199
634 732
819 917
257 357
932 1034
546 647
723 821
830 930
617 719
924 1024
151 249
318 420
102 202
748 850
76 175
921 1023
871 973
701 803
339 439
484 585
574 672
104 206
363 464
